objective value:                 0.000263082564000039
x_1_1                                               1 	(obj:0)
x_2_2                                               1 	(obj:0)
x_3_4                                               1 	(obj:0)
x_4_2                                               1 	(obj:0)
x_5_4                                               1 	(obj:0)
x_6_1                                               1 	(obj:0)
x_7_2                                               1 	(obj:0)
x_8_4                                               1 	(obj:0)
x_9_2                                               1 	(obj:0)
x_10_2                                              1 	(obj:0)
x_11_1                                              1 	(obj:0)
x_12_4                                              1 	(obj:0)
x_13_4                                              1 	(obj:0)
x_14_4                                              1 	(obj:0)
x_15_2                                              1 	(obj:0)
x_16_1                                              1 	(obj:0)
x_17_2                                              1 	(obj:0)
x_18_4                                              1 	(obj:0)
x_19_1                                              1 	(obj:0)
x_20_2                                              1 	(obj:0)
x_21_4                                              1 	(obj:0)
x_22_1                                              1 	(obj:0)
x_23_1                                              1 	(obj:0)
x_24_1                                              1 	(obj:0)
x_25_2                                              1 	(obj:0)
x_26_4                                              1 	(obj:0)
x_27_2                                              1 	(obj:0)
x_28_4                                              1 	(obj:0)
x_29_2                                              1 	(obj:0)
x_30_4                                              1 	(obj:0)
x_31_4                                              1 	(obj:0)
x_32_1                                              1 	(obj:0)
x_33_2                                              1 	(obj:0)
x_34_2                                              1 	(obj:0)
x_35_4                                              1 	(obj:0)
x_36_4                                              1 	(obj:0)
x_37_4                                              1 	(obj:0)
x_38_2                                              1 	(obj:0)
x_39_2                                              1 	(obj:0)
x_40_1                                              1 	(obj:0)
ind_1                                               1 	(obj:0)
abs_1_2                                             1 	(obj:0)
ind_2                                               1 	(obj:0)
abs_2_4                                             1 	(obj:0)
ind_4                                               1 	(obj:0)
abs_4_1                                             1 	(obj:0)
epsI                             0.000263082564000039 	(obj:1)
SCIP Status        : solving was interrupted [time limit reached]
Total Time         :    3600.01
  solving          :    3600.00
  presolving       :       0.21 (included in solving)
  reading          :       0.01
  copying          :       0.00 (0 times copied the problem)
Original Problem   :
  Problem name     : ../instances/Pot3NonCycle/Pot3NonCycle_T_40B_1t.txt.spa
  Variables        : 181 (180 binary, 0 integer, 0 implicit integer, 1 continuous)
  Constraints      : 333 initial, 333 maximal
  Objective sense  : maximize
Presolved Problem  :
  Problem name     : t_../instances/Pot3NonCycle/Pot3NonCycle_T_40B_1t.txt.spa
  Variables        : 1230 (172 binary, 0 integer, 16 implicit integer, 1042 continuous)
  Constraints      : 4291 initial, 4361 maximal
Presolvers         :   ExecTime  SetupTime  Calls  FixedVars   AggrVars   ChgTypes  ChgBounds   AddHoles    DelCons    AddCons   ChgSides   ChgCoefs
  boundshift       :       0.00       0.00      0          0          0          0          0          0          0          0          0          0
  components       :       0.00       0.00      1          0          0          0          0          0          0          0          0          0
  convertinttobin  :       0.00       0.00      0          0          0          0          0          0          0          0          0          0
  domcol           :       0.01       0.00      1          0          0          0          0          0          0          0          0          0
  dualagg          :       0.00       0.00      0          0          0          0          0          0          0          0          0          0
  dualinfer        :       0.00       0.00      0          0          0          0          0          0          0          0          0          0
  gateextraction   :       0.00       0.00      3          0          0          0          0          0        108         34          0          0
  implfree         :       0.00       0.00      0          0          0          0          0          0          0          0          0          0
  implics          :       0.00       0.00      4          0          0          0          0          0          0          0          0          0
  inttobinary      :       0.00       0.00      0          0          0          0          0          0          0          0          0          0
  redvub           :       0.00       0.00      0          0          0          0          0          0          0          0          0          0
  stuffing         :       0.00       0.00      1          0          0          0          0          0          0          0          0          0
  trivial          :       0.00       0.00      7          0          0          0          0          0          0          0          0          0
  tworowbnd        :       0.00       0.00      0          0          0          0          0          0          0          0          0          0
  dualfix          :       0.01       0.00      7          4          0          0          0          0          0          0          0          0
  genvbounds       :       0.00       0.00      0          0          0          0          0          0          0          0          0          0
  probing          :       0.13       0.00      1          0          0          0          4          0          0          0          0          0
  pseudoobj        :       0.00       0.00      0          0          0          0          0          0          0          0          0          0
  varbound         :       0.00       0.00      9          0          0          0          0          0         28         28          0          0
  setppc           :       0.01       0.00     12          0          0          0          0          0          0          0          0          0
  and              :       0.00       0.00      4          0         12          0          0          0         12          0          0          0
  linear           :       0.02       0.00      9          3          1          0          4          0          7          0         12         12
  logicor          :       0.00       0.00      7          0          0          0          0          0          0          0          0          0
  bounddisjunction :       0.00       0.00      0          0          0          0          0          0          0          0          0          0
  quadratic        :       0.03       0.00      2          0          0          0          0          0          0       4051          0          0
  root node        :          -          -      -          1          -          -         65          -          -          -          -          -
Constraints        :     Number  MaxNumber  #Separate #Propagate    #EnfoLP    #EnfoPS     #Check   #ResProp    Cutoffs    DomReds       Cuts    Applied      Conss   Children
  integral         :          0          0          0          0     628445          0     202794          0          0      68308          0          0          0     989002
  varbound         :       1885       1885         86    2950957     130252          0      20315      19246        225   10731257          0          0          0          0
  setppc           :        210        210         86    2950732     130252          0       8703      39882        223     703432         14          0          0          0
  and              :         22         22        881      14862          0          0       8701        847          4        869         33         17          0          0
  linear           :       2099       2099         86    2950505     130252          0       8626      14411        245   33375979   15889549   15888994          0          0
  logicor          :         75+        96         60     349899          0          0          0       2567          0        566          1          1          0          0
  bounddisjunction :          0+        96          0     362268          0          0          0        150          7      12547          0          0          0          0
  countsols        :          0          0          0          0          0          0     182474          0          0          0          0          0          0          0
Constraint Timings :  TotalTime  SetupTime   Separate  Propagate     EnfoLP     EnfoPS      Check    ResProp    SB-Prop
  integral         :      34.82       0.00       0.00       0.00      34.81       0.00       0.01       0.00       0.00
  varbound         :      13.76       0.00       0.03       9.94       2.91       0.00       0.83       0.01       0.04
  setppc           :      20.62       0.00       0.00      20.23       0.05       0.00       0.02       0.01       0.31
  and              :       0.00       0.00       0.00       0.00       0.00       0.00       0.00       0.00       0.00
  linear           :      99.09       0.00       0.07      79.86      17.65       0.00       0.72       0.02       0.77
  logicor          :       0.18       0.00       0.00       0.17       0.00       0.00       0.00       0.00       0.01
  bounddisjunction :       0.17       0.00       0.00       0.17       0.00       0.00       0.00       0.00       0.00
  countsols        :       0.01       0.00       0.00       0.00       0.00       0.00       0.01       0.00       0.00
Propagators        : #Propagate   #ResProp    Cutoffs    DomReds
  dualfix          :          2          0          0          0
  genvbounds       :          0          0          0          0
  obbt             :          0          0          0          0
  probing          :          0          0          0          0
  pseudoobj        :    2960231          0          0         64
  redcost          :    1289491          0          0      41776
  rootredcost      :          1          0          0          0
  vbounds          :    3578703         20          0       1028
Propagator Timings :  TotalTime  SetupTime   Presolve  Propagate    ResProp    SB-Prop
  dualfix          :       0.01       0.00       0.01       0.00       0.00       0.00
  genvbounds       :       0.46       0.00       0.00       0.46       0.00       0.00
  obbt             :       0.00       0.00       0.00       0.00       0.00       0.00
  probing          :       0.13       0.00       0.13       0.00       0.00       0.00
  pseudoobj        :       1.02       0.00       0.00       1.02       0.00       0.00
  redcost          :       6.97       0.00       0.00       6.97       0.00       0.00
  rootredcost      :       0.66       0.00       0.00       0.66       0.00       0.00
  vbounds          :       0.81       0.00       0.00       0.81       0.00       0.00
Conflict Analysis  :       Time      Calls    Success    DomReds  Conflicts   Literals    Reconvs ReconvLits   LP Iters
  propagation      :       0.14        459        458          -      13381       75.9         39       87.7          -
  infeasible LP    :      15.00     115837        288          -       4421       51.4          0        0.0          0
  bound exceed. LP :       0.00          0          0          -          0        0.0          0        0.0          0
  strong branching :       0.00          0          0          -          0        0.0          0        0.0          0
  pseudo solution  :       0.00          0          0          -          0        0.0          0        0.0          -
  applied globally :       0.02          -          -          0        562       21.0          -          -          -
  applied locally  :          -          -          -          0        425       39.4          -          -          -
Separators         :   ExecTime  SetupTime      Calls    Cutoffs    DomReds       Cuts    Applied      Conss
  cut pool         :       0.00                    85          -          -       1508          -          -    (maximal pool size: 860)
  cgmip            :       0.00       0.00          0          0          0          0          0          0
  clique           :       0.04       0.00         86          0          0         84         43          0
  closecuts        :       0.00       0.00          0          0          0          0          0          0
  cmir             :       0.04       0.00         10          0          0        102         74          0
  disjunctive      :       0.00       0.00          0          0          0          0          0          0
  eccuts           :       0.00       0.00          0          0          0          0          0          0
  flowcover        :       0.92       0.00         15          0          0        279         53          0
  gomory           :       0.19       0.00         10          0          0         10          9          0
  impliedbounds    :       0.01       0.00         86          0          0       1056        159          0
  intobj           :       0.00       0.00          0          0          0          0          0          0
  mcf              :       0.00       0.00          1          0          0          0          0          0
  oddcycle         :       0.00       0.00          0          0          0          0          0          0
  rapidlearning    :       0.00       0.00          0          0          0          0          0          0
  strongcg         :       0.32       0.00         20          0          0          3          2          0
  zerohalf         :       0.00       0.00          0          0          0          0          0          0
Pricers            :   ExecTime  SetupTime      Calls       Vars
  problem variables:       0.00          -          0          0
Branching Rules    :   ExecTime  SetupTime   BranchLP  BranchExt   BranchPS    Cutoffs    DomReds       Cuts      Conss   Children
  allfullstrong    :       0.00       0.00          0          0          0          0          0          0          0          0
  cloud            :       0.00       0.00          0          0          0          0          0          0          0          0
  distribution     :       0.00       0.00          0          0          0          0          0          0          0          0
  fullstrong       :       0.00       0.00          0          0          0          0          0          0          0          0
  inference        :       0.00       0.00          0          0          0          0          0          0          0          0
  leastinf         :       0.00       0.00          0          0          0          0          0          0          0          0
  mostinf          :       0.00       0.00          0          0          0          0          0          0          0          0
  multaggr         :       0.00       0.00          0          0          0          0          0          0          0          0
  nodereopt        :       0.00       0.00          0          0          0          0          0          0          0          0
  pscost           :       0.00       0.00          0          0          0          0          0          0          0          0
  random           :       0.00       0.00          0          0          0          0          0          0          0          0
  relpscost        :      34.44       0.00     498193          0          0          0      68308          0         -6     989002
Primal Heuristics  :   ExecTime  SetupTime      Calls      Found       Best
  LP solutions     :       0.00          -          -          0          -
  pseudo solutions :       0.00          -          -          0          -
  strong branching :       0.00          -          -          0          -
  SpaGreedy        :     467.98       0.00     182473          2          1
  actconsdiving    :       0.00       0.00          0          0          0
  bound            :       0.00       0.00          0          0          0
  clique           :       0.00       0.00          0          0          0
  coefdiving       :      38.05       0.00       2861          0          0
  crossover        :       0.19       0.00          0          0          0
  dins             :       0.00       0.00          0          0          0
  distributiondivin:      51.97       0.00       2860          0          0
  dualval          :       0.00       0.00          0          0          0
  feaspump         :       4.41       0.00       1430          0          0
  fixandinfer      :       0.00       0.00          0          0          0
  fracdiving       :      36.99       0.00       2861          0          0
  guideddiving     :       0.00       0.00          0          0          0
  indicator        :       0.09       0.00          0          0          0
  intdiving        :       0.00       0.00          0          0          0
  intshifting      :       0.39       0.00         54          0          0
  linesearchdiving :      42.53       0.00       2861          0          0
  localbranching   :       0.00       0.00          0          0          0
  mutation         :       0.00       0.00          0          0          0
  nlpdiving        :       0.01       0.00          0          0          0
  objpscostdiving  :      18.55       0.00       1431          0          0
  octane           :       0.00       0.00          0          0          0
  ofins            :       0.00       0.00          0          0          0
  oneopt           :       0.22       0.00          0          0          0
  proximity        :       0.00       0.00          0          0          0
  pscostdiving     :      32.74       0.00       2861          0          0
  randrounding     :       1.25       0.00      10726          0          0
  rens             :       0.00       0.00          0          0          0
  reoptsols        :       0.00       0.00          0          0          0
  rins             :       0.19       0.00          0          0          0
  rootsoldiving    :      11.36       0.00       1431          0          0
  rounding         :       0.41       0.00       9904          0          0
  shiftandpropagate:       0.00       0.00          0          0          0
  shifting         :       1.82       0.00       4053          0          0
  simplerounding   :       0.03       0.00          0          0          0
  subnlp           :       0.20       0.00          0          0          0
  trivial          :       0.00       0.00          2          0          0
  trivialnegation  :       0.00       0.00          0          0          0
  trysol           :       0.11       0.00          0          0          0
  twoopt           :       0.00       0.00          0          0          0
  undercover       :       0.00       0.00          1          0          0
  vbounds          :       0.00       0.00          0          0          0
  veclendiving     :      42.71       0.00       2860          0          0
  zeroobj          :       0.00       0.00          0          0          0
  zirounding       :       0.22       0.00       1000          0          0
  other solutions  :          -          -          -          0          -
Diving Statistics  :      Calls      Nodes   LP Iters Backtracks   MinDepth   MaxDepth   AvgDepth  NLeafSols  MinSolDpt  MaxSolDpt  AvgSolDpt
  actconsdiving    :          0          -          -          -          -          -          -          -          -          -          -
  coefdiving       :       2861      38379     607711       1395         20         51       33.4          -          -          -          -
  distributiondivin:       2860      32126     569631       2853         18         49       30.8          -          -          -          -
  fracdiving       :       2861      37132     639619       2094         20         62       32.8          -          -          -          -
  guideddiving     :          0          -          -          -          -          -          -          -          -          -          -
  linesearchdiving :       2861      34366     661947       2456         17         50       31.6          -          -          -          -
  pscostdiving     :       2861      34999     497140       2074         20         61       32.0          -          -          -          -
  veclendiving     :       2860      40757     729203       2295         23         42       34.0          -          -          -          -
LP                 :       Time      Calls Iterations  Iter/call   Iter/sec  Time-0-It Calls-0-It
  primal LP        :       0.01         14          0       0.00       0.00       0.01         14
  dual LP          :    2259.38    1104752   42434447      41.36   18781.46      19.10      78736
  lex dual LP      :       0.00          0          0       0.00          -
  barrier LP       :       0.00          0          0       0.00          -       0.00          0
  diving/probing LP:     195.73     107422    4161765      38.74   21262.79
  strong branching :      23.50       4905     329028      67.08   14001.19
    (at root node) :          -         21       2334     111.14          -
  conflict analysis:       0.00          0          0       0.00          -
B&B Tree           :
  number of runs   :          1
  nodes            :     903549 (494501 internal, 409048 leaves)
  nodes (total)    :     903549 (494501 internal, 409048 leaves)
  nodes left       :      85454
  max depth        :         35
  max depth (total):         35
  backtracks       :     230430 (25.5%)
  delayed cutoffs  :          1
  repropagations   :        168 (799 domain reductions, 1 cutoffs)
  avg switch length:       4.09
  switching time   :     178.20
Root Node          :
  First LP value   : +3.00000000000000e+00
  First LP Iters   :        883 (44150.00 Iter/sec)
  First LP Time    :       0.02
  Final Dual Bound : +3.63360430536244e-03
  Final Root Iters :       5311
Solution           :
  Solutions found  :          2 (1 improvements)
  First Solution   : +2.63082564000039e-04   (in run 1, after 1 nodes, 0.21 seconds, depth 0, found by <SpaGreedy>)
  Gap First Sol.   :   infinite
  Gap Last Sol.    :   infinite
  Primal Bound     : +2.63082564000039e-04   (in run 1, after 1 nodes, 0.21 seconds, depth 0, found by <SpaGreedy>)
  Dual Bound       : +4.58285838525478e-04
  Gap              :      74.20 %
  Avg. Gap         :      92.77 % (333959.39 primal-dual integral)
